language ESSENCE' 1.0
$ Generated from file ../../j30/j3043_6.mm
letting jobs = 32
letting horizon = 43
letting resourcesRenew = 2
letting resourcesNonrenew = 2
letting successors = [[2, 3, 4], [7, 8, 10], [23], [5, 6], [7, 12, 13], [21], [9, 11, 24], [13, 15], [14, 15, 22], [17, 19], [18, 20, 27], [16, 25], [22], [18, 27], [20], [24], [21, 29], [19, 25, 26], [30], [21, 23], [28], [23, 26], [25, 31], [27, 28, 29], [29], [28, 31], [30, 31], [30], [32], [32], [32], []]
letting durations = [[0], [5, 8, 10], [3, 5, 9], [1, 2, 10], [1, 4, 8], [3, 4, 8], [3, 3, 5], [1, 7, 9], [2, 3, 6], [1, 4, 10], [5, 6, 7], [2, 8, 8], [1, 2, 3], [2, 7, 9], [1, 9, 10], [6, 6, 6], [2, 2, 10], [1, 2, 3], [2, 4, 4], [3, 6, 7], [4, 5, 6], [3, 5, 6], [2, 8, 9], [1, 5, 6], [4, 6, 10], [3, 4, 9], [4, 7, 9], [3, 5, 10], [1, 3, 4], [2, 3, 5], [4, 8, 9], [0]]
letting resourceUsage = [[[0, 0, 0, 0]], [[0, 5, 6, 5], [7, 0, 6, 5], [0, 5, 4, 4]], [[9, 0, 9, 9], [4, 0, 8, 7], [0, 5, 7, 3]], [[10, 0, 5, 9], [0, 5, 5, 8], [0, 5, 3, 8]], [[0, 7, 3, 8], [0, 6, 2, 5], [3, 0, 1, 4]], [[0, 9, 8, 7], [6, 0, 5, 6], [0, 4, 4, 6]], [[3, 0, 8, 9], [3, 0, 7, 10], [0, 6, 5, 5]], [[3, 0, 8, 1], [2, 0, 8, 1], [2, 0, 3, 1]], [[0, 7, 9, 9], [6, 0, 9, 8], [6, 0, 8, 7]], [[7, 0, 10, 8], [0, 9, 8, 6], [0, 8, 6, 1]], [[6, 0, 8, 7], [0, 2, 5, 4], [6, 0, 3, 2]], [[9, 0, 5, 9], [0, 7, 4, 8], [0, 8, 1, 8]], [[7, 0, 6, 6], [0, 7, 5, 5], [6, 0, 4, 2]], [[7, 0, 8, 7], [0, 8, 7, 7], [4, 0, 3, 3]], [[0, 4, 8, 8], [2, 0, 7, 8], [0, 3, 4, 7]], [[0, 3, 6, 6], [9, 0, 6, 4], [8, 0, 7, 4]], [[10, 0, 1, 7], [0, 6, 1, 8], [7, 0, 1, 6]], [[0, 9, 5, 4], [0, 8, 4, 3], [5, 0, 1, 3]], [[3, 0, 5, 9], [0, 4, 5, 9], [3, 0, 5, 7]], [[8, 0, 5, 3], [0, 4, 5, 2], [0, 3, 2, 1]], [[5, 0, 3, 7], [4, 0, 2, 6], [3, 0, 2, 5]], [[8, 0, 9, 5], [8, 0, 8, 5], [7, 0, 7, 5]], [[6, 0, 4, 8], [0, 7, 4, 7], [0, 2, 4, 5]], [[8, 0, 7, 7], [0, 7, 7, 7], [0, 5, 7, 5]], [[8, 0, 7, 8], [5, 0, 6, 5], [1, 0, 5, 4]], [[7, 0, 9, 9], [7, 0, 7, 9], [7, 0, 6, 8]], [[0, 10, 8, 6], [0, 6, 5, 5], [10, 0, 3, 3]], [[0, 6, 9, 9], [7, 0, 8, 9], [7, 0, 8, 8]], [[0, 4, 9, 10], [0, 4, 6, 5], [0, 3, 5, 5]], [[8, 0, 3, 9], [0, 6, 2, 7], [0, 3, 2, 5]], [[7, 0, 10, 9], [0, 1, 10, 6], [6, 0, 10, 4]], [[0, 0, 0, 0]]]
letting resourceLimits = [26, 27, 166, 180]
letting candidateParents = [[], [1, 3, 4, 5, 6, 12, 16], [1, 2, 4, 5, 6, 7, 8, 9, 10, 11, 12, 13, 14, 15, 16, 17, 18, 19, 20, 21, 22, 24, 26, 27, 28, 30], [1, 2, 3, 8, 10, 17], [2, 3, 4, 6, 8, 10, 17], [2, 3, 4, 5, 7, 8, 9, 10, 11, 12, 13, 14, 15, 16, 17, 18, 19, 20, 22, 23, 24, 25, 26, 27, 29, 31], [2, 3, 5, 6, 8, 10, 12, 13, 16, 17], [2, 3, 4, 5, 6, 7, 9, 10, 11, 12, 14, 16, 17, 18, 19, 24, 27], [3, 6, 7, 8, 10, 11, 12, 13, 16, 17, 24], [2, 3, 4, 5, 6, 7, 8, 9, 11, 12, 13, 14, 15, 16, 18, 20, 22, 23, 24, 25, 26, 27, 31], [3, 6, 7, 8, 9, 10, 12, 13, 14, 15, 16, 17, 22, 24], [2, 3, 5, 6, 7, 8, 9, 10, 11, 13, 14, 15, 17, 18, 19, 20, 21, 22, 23, 26], [3, 5, 6, 7, 8, 9, 10, 11, 12, 14, 15, 16, 17, 18, 19, 20, 21, 24, 27], [3, 6, 8, 9, 10, 11, 12, 13, 15, 16, 17, 20, 21, 22, 23, 24], [3, 6, 8, 9, 10, 11, 12, 13, 14, 16, 17, 18, 19, 22, 24, 26, 27], [2, 3, 6, 7, 8, 9, 10, 11, 12, 13, 14, 15, 17, 18, 19, 20, 21, 22, 23, 25, 26], [3, 4, 5, 6, 7, 8, 9, 10, 11, 12, 13, 14, 15, 16, 18, 19, 20, 22, 23, 24, 25, 26, 27, 31], [3, 6, 8, 10, 11, 12, 13, 14, 15, 16, 17, 20, 21, 22, 23, 24, 27], [3, 6, 8, 10, 12, 13, 15, 16, 17, 18, 20, 21, 22, 23, 24, 25, 26, 27, 28, 29, 31], [3, 6, 10, 11, 12, 13, 14, 15, 16, 17, 18, 19, 22, 24, 26, 27], [3, 6, 12, 13, 14, 16, 17, 18, 19, 20, 22, 23, 24, 25, 26, 27, 29, 31], [3, 6, 9, 10, 11, 12, 13, 14, 15, 16, 17, 18, 19, 20, 21, 24, 27], [3, 6, 10, 12, 14, 16, 17, 18, 19, 20, 21, 22, 24, 26, 27, 28, 30], [3, 6, 7, 8, 9, 10, 11, 13, 14, 15, 16, 17, 18, 19, 20, 21, 22, 23, 25, 26], [6, 10, 12, 16, 17, 18, 19, 21, 23, 24, 26, 27, 28, 30, 31], [3, 6, 10, 12, 15, 16, 17, 18, 19, 20, 21, 22, 23, 24, 25, 27, 29], [3, 6, 8, 10, 11, 13, 14, 15, 17, 18, 19, 20, 21, 22, 23, 24, 25, 26, 28, 29], [3, 19, 21, 23, 24, 25, 26, 27, 29, 31], [6, 17, 19, 21, 24, 25, 26, 27, 28, 30, 31], [3, 19, 23, 25, 27, 28, 29, 31], [6, 10, 17, 19, 21, 23, 25, 26, 27, 28, 29, 30], [29, 30, 31]]
